SECTION Graph
Nodes 1128
Edges 1905
E 1 2 5
E 2 3 5
E 3 4 5
E 4 5 5
E 5 6 5
E 6 7 5
E 7 8 5
E 8 9 5
E 10 11 5
E 11 12 5
E 12 13 5
E 13 14 5
E 14 15 5
E 15 16 5
E 16 17 5
E 17 18 5
E 18 19 5
E 19 20 5
E 20 21 5
E 21 22 5
E 22 23 5
E 23 24 5
E 24 25 5
E 25 26 5
E 26 27 5
E 28 29 5
E 30 31 5
E 31 32 5
E 32 33 5
E 33 34 5
E 34 35 5
E 35 36 5
E 36 37 5
E 37 38 5
E 38 39 5
E 39 40 5
E 40 41 5
E 1 42 13
E 2 43 13
E 3 44 13
E 4 45 13
E 5 46 13
E 6 47 13
E 7 48 13
E 8 49 13
E 9 50 13
E 10 54 13
E 11 55 13
E 12 56 13
E 13 57 13
E 14 58 13
E 15 59 13
E 16 60 13
E 18 61 13
E 19 62 13
E 20 63 13
E 21 64 13
E 25 65 13
E 27 66 13
E 28 68 13
E 29 69 13
E 30 70 13
E 31 71 13
E 34 74 13
E 35 75 13
E 36 76 13
E 37 77 13
E 41 78 13
E 42 43 5
E 43 44 5
E 44 45 5
E 45 46 5
E 46 47 5
E 47 48 5
E 48 49 5
E 49 50 5
E 50 51 5
E 51 52 5
E 52 53 5
E 53 54 5
E 54 55 5
E 55 56 5
E 56 57 5
E 57 58 5
E 58 59 5
E 59 60 5
E 61 62 5
E 62 63 5
E 63 64 5
E 66 67 5
E 67 68 5
E 68 69 5
E 70 71 5
E 71 72 5
E 72 73 5
E 73 74 5
E 74 75 5
E 75 76 5
E 76 77 5
E 42 79 13
E 43 80 13
E 44 81 13
E 48 82 13
E 49 83 13
E 50 84 13
E 51 85 13
E 52 86 13
E 53 87 13
E 54 88 13
E 55 89 13
E 56 90 13
E 58 91 13
E 60 92 13
E 61 94 13
E 63 95 13
E 64 96 13
E 65 100 13
E 66 102 13
E 67 103 13
E 68 104 13
E 69 105 13
E 70 106 13
E 71 107 13
E 73 108 13
E 74 109 13
E 75 110 13
E 76 111 13
E 77 112 13
E 78 116 13
E 79 80 5
E 80 81 5
E 82 83 5
E 83 84 5
E 84 85 5
E 85 86 5
E 86 87 5
E 87 88 5
E 88 89 5
E 89 90 5
E 92 93 5
E 93 94 5
E 95 96 5
E 96 97 5
E 97 98 5
E 98 99 5
E 99 100 5
E 100 101 5
E 101 102 5
E 102 103 5
E 103 104 5
E 104 105 5
E 106 107 5
E 108 109 5
E 109 110 5
E 110 111 5
E 111 112 5
E 112 113 5
E 113 114 5
E 114 115 5
E 115 116 5
E 79 117 13
E 80 118 13
E 81 119 13
E 82 123 13
E 84 124 13
E 86 125 13
E 87 126 13
E 88 127 13
E 89 128 13
E 90 129 13
E 91 131 13
E 92 133 13
E 94 134 13
E 95 136 13
E 96 137 13
E 97 138 13
E 98 139 13
E 99 140 13
E 100 141 13
E 101 142 13
E 102 143 13
E 103 144 13
E 104 145 13
E 105 146 13
E 106 147 13
E 107 148 13
E 108 150 13
E 109 151 13
E 110 152 13
E 111 153 13
E 112 154 13
E 113 155 13
E 114 156 13
E 115 157 13
E 117 118 5
E 118 119 5
E 119 120 5
E 120 121 5
E 121 122 5
E 122 123 5
E 125 126 5
E 126 127 5
E 127 128 5
E 128 129 5
E 129 130 5
E 130 131 5
E 131 132 5
E 132 133 5
E 134 135 5
E 135 136 5
E 136 137 5
E 137 138 5
E 138 139 5
E 139 140 5
E 140 141 5
E 141 142 5
E 142 143 5
E 143 144 5
E 144 145 5
E 145 146 5
E 147 148 5
E 148 149 5
E 149 150 5
E 150 151 5
E 151 152 5
E 152 153 5
E 153 154 5
E 154 155 5
E 155 156 5
E 156 157 5
E 117 158 13
E 118 159 13
E 119 160 13
E 120 161 13
E 121 162 13
E 122 163 13
E 123 164 13
E 124 166 13
E 125 168 13
E 126 169 13
E 127 170 13
E 128 171 13
E 129 172 13
E 130 173 13
E 132 174 13
E 133 175 13
E 134 177 13
E 135 178 13
E 136 179 13
E 137 180 13
E 139 181 13
E 140 182 13
E 141 183 13
E 142 184 13
E 143 185 13
E 144 186 13
E 145 187 13
E 146 188 13
E 147 192 13
E 148 193 13
E 149 194 13
E 151 195 13
E 152 196 13
E 153 197 13
E 154 198 13
E 155 199 13
E 156 200 13
E 157 201 13
E 158 159 5
E 159 160 5
E 160 161 5
E 161 162 5
E 162 163 5
E 163 164 5
E 164 165 5
E 165 166 5
E 166 167 5
E 167 168 5
E 168 169 5
E 169 170 5
E 170 171 5
E 171 172 5
E 172 173 5
E 174 175 5
E 175 176 5
E 176 177 5
E 177 178 5
E 178 179 5
E 179 180 5
E 181 182 5
E 182 183 5
E 183 184 5
E 184 185 5
E 185 186 5
E 186 187 5
E 187 188 5
E 188 189 5
E 189 190 5
E 190 191 5
E 191 192 5
E 192 193 5
E 193 194 5
E 195 196 5
E 196 197 5
E 197 198 5
E 198 199 5
E 199 200 5
E 200 201 5
E 201 202 5
E 158 203 13
E 159 204 13
E 162 207 13
E 163 208 13
E 164 209 13
E 165 210 13
E 166 211 13
E 167 212 13
E 168 213 13
E 169 214 13
E 172 217 13
E 173 218 13
E 174 220 13
E 175 221 13
E 176 222 13
E 177 223 13
E 178 224 13
E 179 225 13
E 180 226 13
E 181 228 13
E 182 229 13
E 183 230 13
E 184 231 13
E 185 232 13
E 186 233 13
E 187 234 13
E 188 235 13
E 189 236 13
E 190 237 13
E 191 238 13
E 192 239 13
E 193 240 13
E 194 241 13
E 195 243 13
E 196 244 13
E 197 245 13
E 198 246 13
E 199 247 13
E 200 248 13
E 201 249 13
E 202 250 13
E 203 204 5
E 204 205 5
E 205 206 5
E 206 207 5
E 207 208 5
E 208 209 5
E 209 210 5
E 210 211 5
E 211 212 5
E 212 213 5
E 213 214 5
E 214 215 5
E 215 216 5
E 216 217 5
E 217 218 5
E 218 219 5
E 219 220 5
E 220 221 5
E 221 222 5
E 222 223 5
E 223 224 5
E 224 225 5
E 225 226 5
E 226 227 5
E 227 228 5
E 228 229 5
E 229 230 5
E 230 231 5
E 231 232 5
E 232 233 5
E 233 234 5
E 234 235 5
E 235 236 5
E 236 237 5
E 237 238 5
E 238 239 5
E 239 240 5
E 240 241 5
E 241 242 5
E 242 243 5
E 243 244 5
E 244 245 5
E 245 246 5
E 246 247 5
E 247 248 5
E 248 249 5
E 249 250 5
E 203 251 13
E 204 252 13
E 205 253 13
E 206 254 13
E 207 255 13
E 208 256 13
E 209 257 13
E 210 258 13
E 211 259 13
E 212 260 13
E 213 261 13
E 214 262 13
E 217 265 13
E 220 268 13
E 221 269 13
E 222 270 13
E 223 271 13
E 224 272 13
E 225 273 13
E 226 274 13
E 227 275 13
E 228 276 13
E 229 277 13
E 230 278 13
E 231 279 13
E 234 282 13
E 235 283 13
E 236 284 13
E 237 285 13
E 238 286 13
E 239 287 13
E 240 288 13
E 241 289 13
E 242 290 13
E 243 291 13
E 244 292 13
E 245 293 13
E 246 294 13
E 247 295 13
E 248 296 13
E 249 297 13
E 250 298 13
E 251 252 5
E 252 253 5
E 253 254 5
E 254 255 5
E 255 256 5
E 256 257 5
E 257 258 5
E 258 259 5
E 259 260 5
E 260 261 5
E 261 262 5
E 262 263 5
E 263 264 5
E 264 265 5
E 265 266 5
E 266 267 5
E 267 268 5
E 268 269 5
E 269 270 5
E 270 271 5
E 271 272 5
E 272 273 5
E 273 274 5
E 274 275 5
E 275 276 5
E 276 277 5
E 277 278 5
E 278 279 5
E 279 280 5
E 280 281 5
E 281 282 5
E 282 283 5
E 283 284 5
E 284 285 5
E 285 286 5
E 286 287 5
E 287 288 5
E 288 289 5
E 289 290 5
E 290 291 5
E 291 292 5
E 292 293 5
E 293 294 5
E 294 295 5
E 295 296 5
E 296 297 5
E 297 298 5
E 253 301 13
E 254 302 13
E 255 303 13
E 256 304 13
E 257 305 13
E 258 306 13
E 259 307 13
E 260 308 13
E 263 311 13
E 266 314 13
E 269 317 13
E 270 318 13
E 271 319 13
E 272 320 13
E 273 321 13
E 274 322 13
E 275 323 13
E 276 324 13
E 278 325 13
E 279 326 13
E 280 327 13
E 281 328 13
E 283 329 13
E 284 330 13
E 285 331 13
E 286 332 13
E 287 333 13
E 291 334 13
E 292 335 13
E 294 336 13
E 295 337 13
E 296 338 13
E 297 339 13
E 298 340 13
E 299 300 5
E 300 301 5
E 301 302 5
E 302 303 5
E 303 304 5
E 304 305 5
E 305 306 5
E 306 307 5
E 307 308 5
E 308 309 5
E 309 310 5
E 310 311 5
E 311 312 5
E 312 313 5
E 313 314 5
E 314 315 5
E 315 316 5
E 316 317 5
E 317 318 5
E 318 319 5
E 319 320 5
E 320 321 5
E 321 322 5
E 322 323 5
E 323 324 5
E 325 326 5
E 326 327 5
E 327 328 5
E 329 330 5
E 330 331 5
E 331 332 5
E 332 333 5
E 334 335 5
E 336 337 5
E 337 338 5
E 338 339 5
E 339 340 5
E 299 341 13
E 300 342 13
E 301 343 13
E 302 344 13
E 304 345 13
E 306 346 13
E 307 347 13
E 308 348 13
E 311 351 13
E 313 352 13
E 314 353 13
E 315 354 13
E 316 355 13
E 318 356 13
E 319 357 13
E 320 358 13
E 321 359 13
E 322 360 13
E 323 361 13
E 324 362 13
E 325 364 13
E 326 365 13
E 327 366 13
E 328 367 13
E 329 369 13
E 332 372 13
E 333 373 13
E 334 377 13
E 335 378 13
E 336 380 13
E 337 381 13
E 338 382 13
E 339 383 13
E 340 384 13
E 341 342 5
E 342 343 5
E 343 344 5
E 346 347 5
E 347 348 5
E 348 349 5
E 349 350 5
E 350 351 5
E 352 353 5
E 353 354 5
E 354 355 5
E 356 357 5
E 357 358 5
E 358 359 5
E 359 360 5
E 360 361 5
E 361 362 5
E 362 363 5
E 363 364 5
E 364 365 5
E 365 366 5
E 366 367 5
E 367 368 5
E 368 369 5
E 369 370 5
E 370 371 5
E 371 372 5
E 372 373 5
E 373 374 5
E 374 375 5
E 375 376 5
E 376 377 5
E 377 378 5
E 378 379 5
E 379 380 5
E 380 381 5
E 381 382 5
E 382 383 5
E 383 384 5
E 341 385 13
E 342 386 13
E 343 387 13
E 344 388 13
E 345 390 13
E 346 392 13
E 347 393 13
E 348 394 13
E 349 395 13
E 350 396 13
E 351 397 13
E 352 399 13
E 353 400 13
E 354 401 13
E 355 402 13
E 356 404 13
E 357 405 13
E 358 406 13
E 360 407 13
E 361 408 13
E 362 409 13
E 363 410 13
E 364 411 13
E 365 412 13
E 366 413 13
E 367 414 13
E 368 415 13
E 372 416 13
E 373 417 13
E 374 418 13
E 375 419 13
E 376 420 13
E 377 421 13
E 378 422 13
E 379 423 13
E 380 424 13
E 381 425 13
E 382 426 13
E 383 427 13
E 384 428 13
E 385 386 5
E 386 387 5
E 387 388 5
E 388 389 5
E 389 390 5
E 390 391 5
E 391 392 5
E 392 393 5
E 393 394 5
E 394 395 5
E 395 396 5
E 396 397 5
E 397 398 5
E 398 399 5
E 399 400 5
E 400 401 5
E 401 402 5
E 402 403 5
E 403 404 5
E 404 405 5
E 405 406 5
E 407 408 5
E 408 409 5
E 409 410 5
E 410 411 5
E 411 412 5
E 412 413 5
E 413 414 5
E 414 415 5
E 416 417 5
E 417 418 5
E 418 419 5
E 419 420 5
E 420 421 5
E 421 422 5
E 422 423 5
E 423 424 5
E 424 425 5
E 425 426 5
E 426 427 5
E 427 428 5
E 385 429 13
E 386 430 13
E 389 433 13
E 390 434 13
E 391 435 13
E 392 436 13
E 393 437 13
E 394 438 13
E 395 439 13
E 396 440 13
E 397 441 13
E 398 442 13
E 399 443 13
E 400 444 13
E 401 445 13
E 402 446 13
E 403 447 13
E 404 448 13
E 406 449 13
E 407 451 13
E 408 452 13
E 409 453 13
E 410 454 13
E 411 455 13
E 412 456 13
E 413 457 13
E 414 458 13
E 415 459 13
E 416 463 13
E 417 464 13
E 421 465 13
E 422 466 13
E 423 467 13
E 427 468 13
E 428 469 13
E 429 430 5
E 430 431 5
E 431 432 5
E 432 433 5
E 433 434 5
E 434 435 5
E 435 436 5
E 436 437 5
E 437 438 5
E 438 439 5
E 439 440 5
E 440 441 5
E 441 442 5
E 442 443 5
E 443 444 5
E 444 445 5
E 445 446 5
E 446 447 5
E 447 448 5
E 449 450 5
E 450 451 5
E 451 452 5
E 452 453 5
E 453 454 5
E 454 455 5
E 455 456 5
E 456 457 5
E 457 458 5
E 458 459 5
E 459 460 5
E 460 461 5
E 461 462 5
E 462 463 5
E 463 464 5
E 465 466 5
E 466 467 5
E 468 469 5
E 429 470 13
E 430 471 13
E 432 472 13
E 433 473 13
E 434 474 13
E 435 475 13
E 436 476 13
E 437 477 13
E 438 478 13
E 439 479 13
E 440 480 13
E 441 481 13
E 444 484 13
E 445 485 13
E 446 486 13
E 447 487 13
E 448 488 13
E 449 490 13
E 450 491 13
E 451 492 13
E 452 493 13
E 453 494 13
E 454 495 13
E 455 496 13
E 456 497 13
E 459 500 13
E 460 501 13
E 461 502 13
E 462 503 13
E 463 504 13
E 464 505 13
E 465 509 13
E 466 510 13
E 467 511 13
E 468 515 13
E 469 516 13
E 470 471 5
E 472 473 5
E 473 474 5
E 474 475 5
E 475 476 5
E 476 477 5
E 477 478 5
E 478 479 5
E 479 480 5
E 480 481 5
E 481 482 5
E 482 483 5
E 483 484 5
E 484 485 5
E 485 486 5
E 486 487 5
E 487 488 5
E 488 489 5
E 489 490 5
E 490 491 5
E 491 492 5
E 492 493 5
E 493 494 5
E 494 495 5
E 495 496 5
E 496 497 5
E 497 498 5
E 498 499 5
E 499 500 5
E 500 501 5
E 501 502 5
E 502 503 5
E 503 504 5
E 504 505 5
E 505 506 5
E 506 507 5
E 507 508 5
E 508 509 5
E 509 510 5
E 510 511 5
E 511 512 5
E 512 513 5
E 513 514 5
E 514 515 5
E 515 516 5
E 471 517 13
E 472 519 13
E 473 520 13
E 475 521 13
E 476 522 13
E 477 523 13
E 478 524 13
E 479 525 13
E 481 526 13
E 483 527 13
E 484 528 13
E 485 529 13
E 486 530 13
E 487 531 13
E 488 532 13
E 492 533 13
E 493 534 13
E 494 535 13
E 496 536 13
E 497 537 13
E 498 538 13
E 499 539 13
E 500 540 13
E 503 543 13
E 504 544 13
E 505 545 13
E 506 546 13
E 507 547 13
E 508 548 13
E 509 549 13
E 510 550 13
E 511 551 13
E 512 552 13
E 513 553 13
E 514 554 13
E 515 555 13
E 516 556 13
E 517 518 5
E 518 519 5
E 519 520 5
E 521 522 5
E 522 523 5
E 523 524 5
E 524 525 5
E 527 528 5
E 528 529 5
E 529 530 5
E 530 531 5
E 531 532 5
E 533 534 5
E 534 535 5
E 536 537 5
E 537 538 5
E 538 539 5
E 539 540 5
E 540 541 5
E 541 542 5
E 542 543 5
E 543 544 5
E 544 545 5
E 545 546 5
E 546 547 5
E 547 548 5
E 548 549 5
E 549 550 5
E 550 551 5
E 551 552 5
E 552 553 5
E 553 554 5
E 554 555 5
E 555 556 5
E 517 558 13
E 518 559 13
E 519 560 13
E 520 561 13
E 521 563 13
E 522 564 13
E 523 565 13
E 524 566 13
E 525 567 13
E 526 569 13
E 527 571 13
E 528 572 13
E 529 573 13
E 530 574 13
E 531 575 13
E 532 576 13
E 533 580 13
E 534 581 13
E 535 582 13
E 536 584 13
E 537 585 13
E 538 586 13
E 539 587 13
E 540 588 13
E 541 589 13
E 542 590 13
E 543 591 13
E 545 592 13
E 546 593 13
E 550 594 13
E 552 595 13
E 553 596 13
E 554 597 13
E 555 598 13
E 556 599 13
E 557 558 5
E 558 559 5
E 559 560 5
E 560 561 5
E 561 562 5
E 562 563 5
E 563 564 5
E 564 565 5
E 565 566 5
E 566 567 5
E 567 568 5
E 568 569 5
E 569 570 5
E 570 571 5
E 571 572 5
E 572 573 5
E 573 574 5
E 574 575 5
E 575 576 5
E 576 577 5
E 577 578 5
E 578 579 5
E 579 580 5
E 580 581 5
E 581 582 5
E 582 583 5
E 583 584 5
E 584 585 5
E 585 586 5
E 586 587 5
E 587 588 5
E 588 589 5
E 589 590 5
E 590 591 5
E 592 593 5
E 595 596 5
E 596 597 5
E 597 598 5
E 598 599 5
E 557 600 13
E 558 601 13
E 559 602 13
E 561 603 13
E 564 606 13
E 565 607 13
E 566 608 13
E 570 609 13
E 571 610 13
E 573 611 13
E 574 612 13
E 575 613 13
E 576 614 13
E 577 615 13
E 578 616 13
E 579 617 13
E 580 618 13
E 584 619 13
E 585 620 13
E 587 621 13
E 588 622 13
E 591 625 13
E 592 627 13
E 593 628 13
E 594 632 13
E 595 634 13
E 597 635 13
E 598 636 13
E 599 637 13
E 600 601 5
E 601 602 5
E 603 604 5
E 604 605 5
E 605 606 5
E 606 607 5
E 607 608 5
E 609 610 5
E 611 612 5
E 612 613 5
E 613 614 5
E 614 615 5
E 615 616 5
E 616 617 5
E 617 618 5
E 619 620 5
E 621 622 5
E 622 623 5
E 623 624 5
E 624 625 5
E 625 626 5
E 626 627 5
E 627 628 5
E 628 629 5
E 629 630 5
E 630 631 5
E 631 632 5
E 632 633 5
E 633 634 5
E 635 636 5
E 636 637 5
E 601 639 13
E 602 640 13
E 603 642 13
E 606 645 13
E 607 646 13
E 608 647 13
E 609 651 13
E 610 652 13
E 611 654 13
E 612 655 13
E 616 656 13
E 618 657 13
E 619 661 13
E 620 662 13
E 621 664 13
E 622 665 13
E 626 666 13
E 627 667 13
E 628 668 13
E 629 669 13
E 630 670 13
E 633 673 13
E 634 674 13
E 635 676 13
E 636 677 13
E 637 678 13
E 638 639 5
E 639 640 5
E 640 641 5
E 641 642 5
E 642 643 5
E 643 644 5
E 644 645 5
E 645 646 5
E 646 647 5
E 647 648 5
E 648 649 5
E 649 650 5
E 650 651 5
E 651 652 5
E 652 653 5
E 653 654 5
E 654 655 5
E 657 658 5
E 658 659 5
E 659 660 5
E 660 661 5
E 661 662 5
E 662 663 5
E 663 664 5
E 664 665 5
E 666 667 5
E 667 668 5
E 668 669 5
E 669 670 5
E 670 671 5
E 671 672 5
E 672 673 5
E 673 674 5
E 674 675 5
E 675 676 5
E 676 677 5
E 677 678 5
E 638 679 13
E 639 680 13
E 640 681 13
E 642 682 13
E 643 683 13
E 645 684 13
E 647 685 13
E 648 686 13
E 649 687 13
E 650 688 13
E 651 689 13
E 652 690 13
E 653 691 13
E 654 692 13
E 655 693 13
E 656 697 13
E 657 699 13
E 658 700 13
E 659 701 13
E 660 702 13
E 661 703 13
E 662 704 13
E 663 705 13
E 664 706 13
E 665 707 13
E 666 708 13
E 667 709 13
E 668 710 13
E 669 711 13
E 671 712 13
E 672 713 13
E 674 714 13
E 676 715 13
E 677 716 13
E 678 717 13
E 679 680 5
E 680 681 5
E 682 683 5
E 685 686 5
E 686 687 5
E 687 688 5
E 688 689 5
E 689 690 5
E 690 691 5
E 691 692 5
E 692 693 5
E 693 694 5
E 694 695 5
E 695 696 5
E 696 697 5
E 697 698 5
E 698 699 5
E 699 700 5
E 700 701 5
E 701 702 5
E 702 703 5
E 703 704 5
E 704 705 5
E 705 706 5
E 706 707 5
E 708 709 5
E 709 710 5
E 710 711 5
E 712 713 5
E 715 716 5
E 716 717 5
E 680 718 13
E 681 719 13
E 682 721 13
E 683 722 13
E 684 724 13
E 685 726 13
E 686 727 13
E 687 728 13
E 689 729 13
E 690 730 13
E 691 731 13
E 692 732 13
E 693 733 13
E 694 734 13
E 695 735 13
E 696 736 13
E 697 737 13
E 698 738 13
E 699 739 13
E 700 740 13
E 701 741 13
E 702 742 13
E 703 743 13
E 704 744 13
E 705 745 13
E 706 746 13
E 707 747 13
E 708 748 13
E 709 749 13
E 710 750 13
E 711 751 13
E 712 753 13
E 713 754 13
E 714 756 13
E 715 758 13
E 717 759 13
E 718 719 5
E 719 720 5
E 720 721 5
E 721 722 5
E 722 723 5
E 723 724 5
E 724 725 5
E 725 726 5
E 726 727 5
E 727 728 5
E 729 730 5
E 730 731 5
E 731 732 5
E 732 733 5
E 733 734 5
E 734 735 5
E 735 736 5
E 736 737 5
E 737 738 5
E 738 739 5
E 739 740 5
E 740 741 5
E 741 742 5
E 742 743 5
E 743 744 5
E 744 745 5
E 745 746 5
E 746 747 5
E 748 749 5
E 749 750 5
E 750 751 5
E 751 752 5
E 752 753 5
E 753 754 5
E 754 755 5
E 755 756 5
E 756 757 5
E 757 758 5
E 718 761 13
E 719 762 13
E 721 763 13
E 723 764 13
E 725 765 13
E 726 766 13
E 727 767 13
E 728 768 13
E 729 770 13
E 730 771 13
E 731 772 13
E 732 773 13
E 733 774 13
E 734 775 13
E 735 776 13
E 736 777 13
E 738 778 13
E 741 779 13
E 742 780 13
E 743 781 13
E 744 782 13
E 745 783 13
E 746 784 13
E 747 785 13
E 748 786 13
E 749 787 13
E 753 788 13
E 754 789 13
E 755 790 13
E 756 791 13
E 757 792 13
E 758 793 13
E 759 795 13
E 760 761 5
E 761 762 5
E 765 766 5
E 766 767 5
E 767 768 5
E 768 769 5
E 769 770 5
E 770 771 5
E 771 772 5
E 772 773 5
E 773 774 5
E 774 775 5
E 775 776 5
E 776 777 5
E 779 780 5
E 780 781 5
E 781 782 5
E 782 783 5
E 783 784 5
E 784 785 5
E 786 787 5
E 788 789 5
E 789 790 5
E 790 791 5
E 791 792 5
E 792 793 5
E 793 794 5
E 794 795 5
E 760 796 13
E 761 797 13
E 762 798 13
E 763 800 13
E 764 802 13
E 765 804 13
E 766 805 13
E 767 806 13
E 768 807 13
E 771 808 13
E 772 809 13
E 773 810 13
E 774 811 13
E 775 812 13
E 777 813 13
E 778 815 13
E 779 816 13
E 780 817 13
E 781 818 13
E 782 819 13
E 784 820 13
E 785 821 13
E 786 825 13
E 787 826 13
E 788 830 13
E 789 831 13
E 790 832 13
E 791 833 13
E 792 834 13
E 793 835 13
E 794 836 13
E 795 837 13
E 796 797 5
E 797 798 5
E 798 799 5
E 799 800 5
E 800 801 5
E 801 802 5
E 802 803 5
E 803 804 5
E 804 805 5
E 805 806 5
E 806 807 5
E 808 809 5
E 809 810 5
E 810 811 5
E 811 812 5
E 813 814 5
E 814 815 5
E 816 817 5
E 817 818 5
E 818 819 5
E 820 821 5
E 821 822 5
E 822 823 5
E 823 824 5
E 824 825 5
E 825 826 5
E 826 827 5
E 827 828 5
E 828 829 5
E 829 830 5
E 830 831 5
E 831 832 5
E 832 833 5
E 833 834 5
E 834 835 5
E 835 836 5
E 836 837 5
E 797 838 13
E 799 839 13
E 800 840 13
E 804 841 13
E 807 842 13
E 808 843 13
E 809 844 13
E 810 845 13
E 811 846 13
E 812 847 13
E 813 849 13
E 815 850 13
E 816 853 13
E 817 854 13
E 818 855 13
E 819 856 13
E 820 858 13
E 821 859 13
E 822 860 13
E 823 861 13
E 824 862 13
E 825 863 13
E 826 864 13
E 827 865 13
E 828 866 13
E 829 867 13
E 830 868 13
E 831 869 13
E 832 870 13
E 833 871 13
E 834 872 13
E 835 873 13
E 836 874 13
E 837 875 13
E 839 840 5
E 843 844 5
E 844 845 5
E 845 846 5
E 846 847 5
E 847 848 5
E 848 849 5
E 850 851 5
E 851 852 5
E 852 853 5
E 853 854 5
E 854 855 5
E 855 856 5
E 856 857 5
E 857 858 5
E 858 859 5
E 859 860 5
E 860 861 5
E 861 862 5
E 862 863 5
E 863 864 5
E 864 865 5
E 865 866 5
E 866 867 5
E 867 868 5
E 868 869 5
E 869 870 5
E 870 871 5
E 871 872 5
E 872 873 5
E 873 874 5
E 874 875 5
E 838 877 13
E 839 879 13
E 840 880 13
E 841 884 13
E 842 885 13
E 843 888 13
E 844 889 13
E 845 890 13
E 846 891 13
E 848 892 13
E 849 893 13
E 850 895 13
E 851 896 13
E 852 897 13
E 853 898 13
E 854 899 13
E 855 900 13
E 856 901 13
E 857 902 13
E 858 903 13
E 859 904 13
E 860 905 13
E 861 906 13
E 862 907 13
E 863 908 13
E 864 909 13
E 865 910 13
E 866 911 13
E 867 912 13
E 868 913 13
E 869 914 13
E 871 915 13
E 872 916 13
E 873 917 13
E 874 918 13
E 875 919 13
E 876 877 5
E 877 878 5
E 878 879 5
E 879 880 5
E 880 881 5
E 881 882 5
E 882 883 5
E 883 884 5
E 885 886 5
E 886 887 5
E 887 888 5
E 888 889 5
E 889 890 5
E 890 891 5
E 892 893 5
E 893 894 5
E 894 895 5
E 895 896 5
E 896 897 5
E 897 898 5
E 898 899 5
E 899 900 5
E 900 901 5
E 901 902 5
E 902 903 5
E 903 904 5
E 904 905 5
E 905 906 5
E 906 907 5
E 907 908 5
E 908 909 5
E 909 910 5
E 910 911 5
E 911 912 5
E 912 913 5
E 913 914 5
E 915 916 5
E 916 917 5
E 917 918 5
E 918 919 5
E 876 920 13
E 877 921 13
E 880 924 13
E 881 925 13
E 882 926 13
E 883 927 13
E 884 928 13
E 885 931 13
E 886 932 13
E 887 933 13
E 888 934 13
E 889 935 13
E 890 936 13
E 891 937 13
E 892 939 13
E 893 940 13
E 894 941 13
E 895 942 13
E 898 943 13
E 900 944 13
E 901 945 13
E 902 946 13
E 903 947 13
E 905 948 13
E 906 949 13
E 909 952 13
E 910 953 13
E 911 954 13
E 912 955 13
E 913 956 13
E 914 957 13
E 915 959 13
E 916 960 13
E 917 961 13
E 918 962 13
E 919 963 13
E 920 921 5
E 921 922 5
E 922 923 5
E 923 924 5
E 924 925 5
E 925 926 5
E 926 927 5
E 927 928 5
E 928 929 5
E 929 930 5
E 930 931 5
E 931 932 5
E 932 933 5
E 933 934 5
E 934 935 5
E 935 936 5
E 936 937 5
E 937 938 5
E 938 939 5
E 939 940 5
E 940 941 5
E 941 942 5
E 944 945 5
E 945 946 5
E 946 947 5
E 948 949 5
E 949 950 5
E 950 951 5
E 951 952 5
E 952 953 5
E 953 954 5
E 954 955 5
E 955 956 5
E 956 957 5
E 957 958 5
E 958 959 5
E 959 960 5
E 960 961 5
E 961 962 5
E 962 963 5
E 923 964 13
E 924 965 13
E 925 966 13
E 928 969 13
E 929 970 13
E 930 971 13
E 931 972 13
E 933 973 13
E 937 974 13
E 938 975 13
E 942 976 13
E 943 977 13
E 944 979 13
E 945 980 13
E 946 981 13
E 947 982 13
E 948 984 13
E 949 985 13
E 950 986 13
E 951 987 13
E 952 988 13
E 953 989 13
E 954 990 13
E 955 991 13
E 956 992 13
E 957 993 13
E 958 994 13
E 959 995 13
E 960 996 13
E 961 997 13
E 962 998 13
E 963 999 13
E 964 965 5
E 965 966 5
E 966 967 5
E 967 968 5
E 968 969 5
E 969 970 5
E 970 971 5
E 971 972 5
E 974 975 5
E 977 978 5
E 978 979 5
E 979 980 5
E 980 981 5
E 981 982 5
E 982 983 5
E 983 984 5
E 984 985 5
E 985 986 5
E 986 987 5
E 987 988 5
E 988 989 5
E 989 990 5
E 990 991 5
E 991 992 5
E 992 993 5
E 993 994 5
E 994 995 5
E 995 996 5
E 996 997 5
E 997 998 5
E 998 999 5
E 964 1003 13
E 965 1004 13
E 966 1005 13
E 970 1006 13
E 971 1007 13
E 972 1008 13
E 973 1010 13
E 974 1014 13
E 975 1015 13
E 976 1019 13
E 977 1022 13
E 979 1023 13
E 980 1024 13
E 981 1025 13
E 982 1026 13
E 983 1027 13
E 985 1028 13
E 986 1029 13
E 987 1030 13
E 988 1031 13
E 989 1032 13
E 990 1033 13
E 991 1034 13
E 992 1035 13
E 993 1036 13
E 994 1037 13
E 995 1038 13
E 996 1039 13
E 997 1040 13
E 998 1041 13
E 999 1042 13
E 1000 1001 5
E 1001 1002 5
E 1002 1003 5
E 1003 1004 5
E 1004 1005 5
E 1006 1007 5
E 1007 1008 5
E 1008 1009 5
E 1009 1010 5
E 1010 1011 5
E 1011 1012 5
E 1012 1013 5
E 1013 1014 5
E 1014 1015 5
E 1015 1016 5
E 1016 1017 5
E 1017 1018 5
E 1018 1019 5
E 1019 1020 5
E 1020 1021 5
E 1021 1022 5
E 1023 1024 5
E 1024 1025 5
E 1025 1026 5
E 1026 1027 5
E 1028 1029 5
E 1029 1030 5
E 1030 1031 5
E 1031 1032 5
E 1032 1033 5
E 1033 1034 5
E 1034 1035 5
E 1035 1036 5
E 1036 1037 5
E 1037 1038 5
E 1038 1039 5
E 1039 1040 5
E 1040 1041 5
E 1041 1042 5
E 1000 1043 13
E 1001 1044 13
E 1002 1045 13
E 1003 1046 13
E 1005 1047 13
E 1006 1051 13
E 1008 1052 13
E 1009 1053 13
E 1010 1054 13
E 1011 1055 13
E 1012 1056 13
E 1013 1057 13
E 1014 1058 13
E 1015 1059 13
E 1016 1060 13
E 1017 1061 13
E 1018 1062 13
E 1019 1063 13
E 1020 1064 13
E 1021 1065 13
E 1022 1066 13
E 1023 1068 13
E 1024 1069 13
E 1025 1070 13
E 1026 1071 13
E 1027 1072 13
E 1028 1074 13
E 1030 1075 13
E 1031 1076 13
E 1032 1077 13
E 1033 1078 13
E 1034 1079 13
E 1035 1080 13
E 1036 1081 13
E 1038 1082 13
E 1039 1083 13
E 1040 1084 13
E 1041 1085 13
E 1042 1086 13
E 1043 1044 5
E 1044 1045 5
E 1045 1046 5
E 1047 1048 5
E 1048 1049 5
E 1049 1050 5
E 1050 1051 5
E 1052 1053 5
E 1053 1054 5
E 1054 1055 5
E 1055 1056 5
E 1056 1057 5
E 1057 1058 5
E 1058 1059 5
E 1059 1060 5
E 1060 1061 5
E 1061 1062 5
E 1062 1063 5
E 1063 1064 5
E 1064 1065 5
E 1065 1066 5
E 1066 1067 5
E 1067 1068 5
E 1068 1069 5
E 1069 1070 5
E 1070 1071 5
E 1071 1072 5
E 1072 1073 5
E 1073 1074 5
E 1075 1076 5
E 1076 1077 5
E 1077 1078 5
E 1078 1079 5
E 1079 1080 5
E 1080 1081 5
E 1082 1083 5
E 1083 1084 5
E 1084 1085 5
E 1085 1086 5
E 1043 1087 13
E 1044 1088 13
E 1045 1089 13
E 1046 1090 13
E 1047 1092 13
E 1048 1093 13
E 1049 1094 13
E 1050 1095 13
E 1051 1096 13
E 1052 1098 13
E 1053 1099 13
E 1054 1100 13
E 1057 1103 13
E 1058 1104 13
E 1059 1105 13
E 1063 1106 13
E 1064 1107 13
E 1065 1108 13
E 1066 1109 13
E 1067 1110 13
E 1068 1111 13
E 1069 1112 13
E 1072 1113 13
E 1073 1114 13
E 1074 1115 13
E 1075 1117 13
E 1076 1118 13
E 1077 1119 13
E 1079 1120 13
E 1080 1121 13
E 1081 1122 13
E 1082 1124 13
E 1083 1125 13
E 1084 1126 13
E 1085 1127 13
E 1086 1128 13
E 1087 1088 5
E 1088 1089 5
E 1089 1090 5
E 1090 1091 5
E 1091 1092 5
E 1092 1093 5
E 1093 1094 5
E 1094 1095 5
E 1095 1096 5
E 1096 1097 5
E 1097 1098 5
E 1098 1099 5
E 1099 1100 5
E 1100 1101 5
E 1101 1102 5
E 1102 1103 5
E 1103 1104 5
E 1104 1105 5
E 1106 1107 5
E 1107 1108 5
E 1108 1109 5
E 1109 1110 5
E 1110 1111 5
E 1111 1112 5
E 1113 1114 5
E 1114 1115 5
E 1115 1116 5
E 1116 1117 5
E 1117 1118 5
E 1118 1119 5
E 1120 1121 5
E 1121 1122 5
E 1122 1123 5
E 1123 1124 5
E 1124 1125 5
E 1125 1126 5
E 1126 1127 5
E 1127 1128 5
END

SECTION Terminals
Terminals 13
T 28
T 132
T 148
T 269
T 565
T 636
T 766
T 892
T 911
T 937
T 948
T 1043
T 1051
END

EOF
